
  22   10
  10   10   10   10   10   10   10   10   10   10

   0   0   0   0   0   0   0   0   0   0   0   2 2 12 
   5   0   0   0  10   0   0   0   0   0   0   1 3 
   3   0   0   0  10   0   0   0   0   0   0   1 4 
   8   0   0   0   0   0   0   0   0  10   0   1 5 
  10  10   0   0   0   0   0   0   0   0   0   1 6 
   5   0   0   0   0  10   0   0   0   0   0   1 7 
   8   0   0   0   0   0   0   0   0   0  10   1 8 
   9  10   0   0   0   0   0   0   0   0   0   1 9 
   1   0   0   0   0  10   0   0   0   0   0   1 10 
   8   0  10   0   0   0   0   0   0   0   0   1 11 
   7   0   0   0   0   0   0   0   0  10   0   1 13 
   1   0   0   0  10   0   0   0   0   0   0   1 13 
   6  10   0   0   0   0   0   0   0   0   0   1 14 
   4   0  10   0   0   0   0   0   0   0   0   1 15 
   3   0   0   0   0   0  10   0   0   0   0   2 18 16 
   2   0   0   0   0   0   0   0  10   0   0   1 17 
   4  10   0   0   0   0   0   0   0   0   0   1 19 
   4   0   0  10   0   0   0   0   0   0   0   1 19 
   5   0   0   0   0   0  10   0   0   0   0   1 20 
   3   0   0   0   0   0   0   0   0  10   0   1 21 
   4   0   0   0   0   0   0   0  10   0   0   1 22
   0   0   0   0   0   0   0   0   0   0   0   0 
